p wcnf 279 1232 20197
20197 -1 -2 0
20197 -1 -3 0
20197 -1 -4 0
20197 -2 -3 0
20197 -2 -4 0
20197 -3 -4 0
20197 1 2 3 4 0
20197 -8 -9 0
20197 -8 -10 0
20197 -8 -11 0
20197 -9 -10 0
20197 -9 -11 0
20197 -10 -11 0
20197 8 9 10 11 0
20197 -12 -13 0
20197 -12 -14 0
20197 -12 -15 0
20197 -13 -14 0
20197 -13 -15 0
20197 -14 -15 0
20197 12 13 14 15 0
20197 -23 -24 0
20197 -23 -25 0
20197 -23 -26 0
20197 -24 -25 0
20197 -24 -26 0
20197 -25 -26 0
20197 23 24 25 26 0
20197 -27 -28 0
20197 -27 -29 0
20197 -27 -30 0
20197 -28 -29 0
20197 -28 -30 0
20197 -29 -30 0
20197 27 28 29 30 0
20197 -32 -33 0
20197 -32 -34 0
20197 -32 -35 0
20197 -33 -34 0
20197 -33 -35 0
20197 -34 -35 0
20197 32 33 34 35 0
20197 -53 -54 0
20197 -53 -55 0
20197 -53 -56 0
20197 -54 -55 0
20197 -54 -56 0
20197 -55 -56 0
20197 53 54 55 56 0
20197 -57 -58 0
20197 -57 -59 0
20197 -57 -60 0
20197 -58 -59 0
20197 -58 -60 0
20197 -59 -60 0
20197 57 58 59 60 0
20197 -61 -62 0
20197 -61 -63 0
20197 -61 -64 0
20197 -62 -63 0
20197 -62 -64 0
20197 -63 -64 0
20197 61 62 63 64 0
20197 -65 -66 0
20197 -65 -67 0
20197 -65 -68 0
20197 -66 -67 0
20197 -66 -68 0
20197 -67 -68 0
20197 65 66 67 68 0
20197 -69 -70 0
20197 -69 -71 0
20197 -69 -72 0
20197 -70 -71 0
20197 -70 -72 0
20197 -71 -72 0
20197 69 70 71 72 0
20197 -74 -75 0
20197 -74 -76 0
20197 -74 -77 0
20197 -75 -76 0
20197 -75 -77 0
20197 -76 -77 0
20197 74 75 76 77 0
20197 -78 -79 0
20197 -78 -80 0
20197 -78 -81 0
20197 -79 -80 0
20197 -79 -81 0
20197 -80 -81 0
20197 78 79 80 81 0
20197 -82 -83 0
20197 -82 -84 0
20197 -82 -85 0
20197 -83 -84 0
20197 -83 -85 0
20197 -84 -85 0
20197 82 83 84 85 0
20197 -93 -94 0
20197 -93 -95 0
20197 -93 -96 0
20197 -94 -95 0
20197 -94 -96 0
20197 -95 -96 0
20197 93 94 95 96 0
20197 -97 -98 0
20197 -97 -99 0
20197 -97 -100 0
20197 -98 -99 0
20197 -98 -100 0
20197 -99 -100 0
20197 97 98 99 100 0
20197 -102 -103 0
20197 -102 -104 0
20197 -102 -105 0
20197 -103 -104 0
20197 -103 -105 0
20197 -104 -105 0
20197 102 103 104 105 0
20197 -106 -107 0
20197 -106 -108 0
20197 -106 -109 0
20197 -107 -108 0
20197 -107 -109 0
20197 -108 -109 0
20197 106 107 108 109 0
20197 -110 -111 0
20197 -110 -112 0
20197 -110 -113 0
20197 -111 -112 0
20197 -111 -113 0
20197 -112 -113 0
20197 110 111 112 113 0
20197 -114 -115 0
20197 -114 -116 0
20197 -114 -117 0
20197 -115 -116 0
20197 -115 -117 0
20197 -116 -117 0
20197 114 115 116 117 0
20197 -120 -121 0
20197 -120 -122 0
20197 -120 -123 0
20197 -121 -122 0
20197 -121 -123 0
20197 -122 -123 0
20197 120 121 122 123 0
20197 -124 -125 0
20197 -124 -126 0
20197 -124 -127 0
20197 -125 -126 0
20197 -125 -127 0
20197 -126 -127 0
20197 124 125 126 127 0
20197 -128 -129 0
20197 -128 -130 0
20197 -128 -131 0
20197 -129 -130 0
20197 -129 -131 0
20197 -130 -131 0
20197 128 129 130 131 0
20197 -132 -133 0
20197 -132 -134 0
20197 -132 -135 0
20197 -133 -134 0
20197 -133 -135 0
20197 -134 -135 0
20197 132 133 134 135 0
20197 -139 -140 0
20197 -139 -141 0
20197 -139 -142 0
20197 -140 -141 0
20197 -140 -142 0
20197 -141 -142 0
20197 139 140 141 142 0
20197 -143 -144 0
20197 -143 -145 0
20197 -143 -146 0
20197 -144 -145 0
20197 -144 -146 0
20197 -145 -146 0
20197 143 144 145 146 0
20197 -157 -158 0
20197 -157 -159 0
20197 -157 -160 0
20197 -158 -159 0
20197 -158 -160 0
20197 -159 -160 0
20197 157 158 159 160 0
20197 -162 -163 0
20197 -162 -164 0
20197 -162 -165 0
20197 -163 -164 0
20197 -163 -165 0
20197 -164 -165 0
20197 162 163 164 165 0
20197 -167 -168 0
20197 -167 -169 0
20197 -167 -170 0
20197 -168 -169 0
20197 -168 -170 0
20197 -169 -170 0
20197 167 168 169 170 0
20197 -172 -173 0
20197 -172 -174 0
20197 -172 -175 0
20197 -173 -174 0
20197 -173 -175 0
20197 -174 -175 0
20197 172 173 174 175 0
20197 -176 -177 0
20197 -176 -178 0
20197 -176 -179 0
20197 -177 -178 0
20197 -177 -179 0
20197 -178 -179 0
20197 176 177 178 179 0
20197 -180 -181 0
20197 -180 -182 0
20197 -180 -183 0
20197 -181 -182 0
20197 -181 -183 0
20197 -182 -183 0
20197 180 181 182 183 0
20197 -187 -188 0
20197 -187 -189 0
20197 -187 -190 0
20197 -188 -189 0
20197 -188 -190 0
20197 -189 -190 0
20197 187 188 189 190 0
20197 -191 -192 0
20197 -191 -193 0
20197 -191 -194 0
20197 -192 -193 0
20197 -192 -194 0
20197 -193 -194 0
20197 191 192 193 194 0
20197 -195 -196 0
20197 -195 -197 0
20197 -195 -198 0
20197 -196 -197 0
20197 -196 -198 0
20197 -197 -198 0
20197 195 196 197 198 0
20197 -199 -200 0
20197 -199 -201 0
20197 -199 -202 0
20197 -200 -201 0
20197 -200 -202 0
20197 -201 -202 0
20197 199 200 201 202 0
20197 -205 -206 0
20197 -205 -207 0
20197 -205 -208 0
20197 -206 -207 0
20197 -206 -208 0
20197 -207 -208 0
20197 205 206 207 208 0
20197 -209 -210 0
20197 -209 -211 0
20197 -209 -212 0
20197 -210 -211 0
20197 -210 -212 0
20197 -211 -212 0
20197 209 210 211 212 0
20197 -213 -214 0
20197 -213 -215 0
20197 -213 -216 0
20197 -214 -215 0
20197 -214 -216 0
20197 -215 -216 0
20197 213 214 215 216 0
20197 -219 -220 0
20197 -219 -221 0
20197 -219 -222 0
20197 -220 -221 0
20197 -220 -222 0
20197 -221 -222 0
20197 219 220 221 222 0
20197 -223 -224 0
20197 -223 -225 0
20197 -223 -226 0
20197 -224 -225 0
20197 -224 -226 0
20197 -225 -226 0
20197 223 224 225 226 0
20197 -227 -228 0
20197 -227 -229 0
20197 -227 -230 0
20197 -228 -229 0
20197 -228 -230 0
20197 -229 -230 0
20197 227 228 229 230 0
20197 -231 -232 0
20197 -231 -233 0
20197 -231 -234 0
20197 -232 -233 0
20197 -232 -234 0
20197 -233 -234 0
20197 231 232 233 234 0
20197 -244 -245 0
20197 -244 -246 0
20197 -244 -247 0
20197 -245 -246 0
20197 -245 -247 0
20197 -246 -247 0
20197 244 245 246 247 0
20197 -248 -249 0
20197 -248 -250 0
20197 -248 -251 0
20197 -249 -250 0
20197 -249 -251 0
20197 -250 -251 0
20197 248 249 250 251 0
20197 -252 -253 0
20197 -252 -254 0
20197 -252 -255 0
20197 -253 -254 0
20197 -253 -255 0
20197 -254 -255 0
20197 252 253 254 255 0
20197 -256 -257 0
20197 -256 -258 0
20197 -256 -259 0
20197 -257 -258 0
20197 -257 -259 0
20197 -258 -259 0
20197 256 257 258 259 0
20197 -260 -261 0
20197 -260 -262 0
20197 -260 -263 0
20197 -261 -262 0
20197 -261 -263 0
20197 -262 -263 0
20197 260 261 262 263 0
20197 -264 -265 0
20197 -264 -266 0
20197 -264 -267 0
20197 -265 -266 0
20197 -265 -267 0
20197 -266 -267 0
20197 264 265 266 267 0
20197 -268 -269 0
20197 -268 -270 0
20197 -268 -271 0
20197 -269 -270 0
20197 -269 -271 0
20197 -270 -271 0
20197 268 269 270 271 0
20197 -272 -273 0
20197 -272 -274 0
20197 -272 -275 0
20197 -273 -274 0
20197 -273 -275 0
20197 -274 -275 0
20197 272 273 274 275 0
20197 -276 -277 0
20197 -276 -278 0
20197 -276 -279 0
20197 -277 -278 0
20197 -277 -279 0
20197 -278 -279 0
20197 276 277 278 279 0
20197 186 -176 0
20197 186 -178 0
20197 -268 236 -265 0
20197 -143 137 0
20197 -145 137 0
20197 185 -162 0
20197 185 -164 0
20197 236 235 0
500 -236 -235 0
20197 -196 239 0
20197 236 -177 0
20197 161 -157 0
20197 161 -159 0
20197 -276 236 -261 0
20197 -139 138 0
20197 -141 138 0
20197 150 148 0
20197 -115 89 -120 0
20197 -65 -57 0
20197 -66 -58 0
20197 -67 -59 0
20197 186 -180 0
20197 186 -182 0
20197 -256 -248 0
20197 -257 -249 0
20197 -258 -250 0
20197 218 217 0
1000 -218 -217 0
20197 -192 241 0
1 -118 -120 0
1 -118 -122 0
1 -118 -123 0
20197 118 147 -121 0
20197 -124 -132 0
20197 -125 -133 0
20197 -126 -134 0
20197 -195 -209 0
20197 -196 -210 0
20197 -197 -211 0
20197 49 -93 -79 0
20197 51 -75 -93 0
20197 -223 218 0
20197 -225 218 0
20197 171 239 0
1 -171 -239 0
20197 204 -187 0
20197 204 -189 0
20197 -53 -57 0
1 -53 -59 0
1 -53 -60 0
20197 -54 -58 0
1 -55 -57 0
20197 -55 -59 0
1 -55 -60 0
1 -56 -57 0
1 -56 -59 0
1 -56 -60 0
20197 237 -173 0
20197 -205 -209 0
20197 -206 -210 0
20197 -207 -211 0
20197 -172 -167 0
20197 -173 -168 0
20197 -174 -169 0
20197 236 -205 0
20197 236 -207 0
20197 -23 31 0
20197 -25 31 0
20197 -268 -272 0
20197 -269 -273 0
20197 -270 -274 0
20197 204 -205 0
20197 204 -207 0
20197 119 -128 0
20197 119 -130 0
1 -119 -129 0
1 -119 -131 0
20197 51 -83 -93 0
20197 73 -114 90 0
20197 42 38 0
1 -191 -239 0
20197 -192 239 0
1 -193 -239 0
1 -194 -239 0
20197 218 -205 0
20197 218 -207 0
20197 -110 -93 0
20197 -111 -94 0
20197 -112 -95 0
20197 -93 -102 0
20197 -94 -103 0
20197 -95 -104 0
20197 86 89 0
20197 -256 -264 0
20197 -257 -265 0
20197 -258 -266 0
20197 -110 -102 0
20197 -111 -103 0
20197 -112 -104 0
20197 217 -209 0
20197 217 -211 0
20197 21 19 0
20197 -97 -110 0
20197 -98 -111 0
20197 -99 -112 0
20197 153 155 0
20197 153 152 0
20197 238 241 0
20197 92 118 -63 0
20197 88 -111 0
20197 -115 89 119 0
20197 39 37 0
20197 -162 -157 0
20197 -163 -158 0
20197 -164 -159 0
20197 -97 -93 0
20197 -98 -94 0
20197 -99 -95 0
20197 203 -187 0
20197 203 -189 0
20197 73 92 -114 0
20197 -232 -182 -260 0
20197 149 148 0
1 -149 -148 0
20197 48 50 0
20197 119 -124 0
20197 119 -126 0
20197 171 -157 0
20197 171 -159 0
20197 -97 101 0
20197 -99 101 0
20197 184 -167 0
20197 184 -169 0
20197 -268 236 -261 0
20197 88 -103 0
20197 242 238 0
2 -242 -238 0
20197 73 -61 0
20197 73 -63 0
20197 5 -12 0
20197 5 -14 0
20197 -199 -191 0
20197 -200 -192 0
20197 -201 -193 0
20197 5 36 0
1 -5 -36 0
20197 238 239 0
20197 149 118 0
1 -149 -118 0
20197 -69 -65 0
20197 -70 -66 0
20197 -71 -67 0
20197 88 44 0
20197 42 41 0
20197 18 16 0
20197 36 31 0
1 -118 -148 0
20197 118 148 -129 0
20197 184 -172 0
20197 184 -174 0
20197 88 45 0
20197 186 184 0
1000 -186 -184 0
20197 236 -209 0
20197 236 -211 0
20197 136 -120 0
20197 136 -122 0
2 -136 -121 0
2 -136 -123 0
20197 -97 -106 0
20197 -98 -107 0
20197 -99 -108 0
20197 161 -167 0
20197 161 -169 0
20197 118 148 -121 0
1 118 -148 -120 0
1 118 -148 -122 0
1 118 -148 -123 0
20197 -32 -23 0
20197 -33 -24 0
20197 -34 -25 0
20197 20 19 0
20197 204 -209 0
20197 204 -211 0
20197 -276 236 -265 0
20197 88 87 0
20197 43 44 0
1 -43 -44 0
20197 171 -220 0
20197 -199 -195 0
20197 -200 -196 0
20197 -201 -197 0
20197 92 118 -67 0
20197 -224 -264 -174 0
20197 218 -209 0
20197 218 -211 0
20197 21 18 0
20197 -93 50 -79 0
20197 -205 -199 0
20197 -206 -200 0
20197 -207 -201 0
20197 240 243 0
20197 185 -176 0
20197 185 -178 0
20197 -232 -174 -260 0
20197 118 -67 90 0
20197 -74 -57 0
20197 -75 -58 0
20197 -76 -59 0
20197 156 -176 0
20197 -82 87 0
20197 -84 87 0
20197 161 -172 0
20197 161 -174 0
20197 -27 36 0
20197 -29 36 0
20197 17 19 0
20197 -252 -264 0
20197 -253 -265 0
20197 -254 -266 0
20197 73 -65 0
20197 73 -67 0
20197 149 151 0
20197 52 -93 -79 0
20197 242 241 0
1 -242 -241 0
20197 52 -110 -79 0
20197 -143 148 0
20197 -145 148 0
20197 166 -157 0
20197 166 -159 0
20197 185 166 0
500 -185 -166 0
20197 156 -180 0
20197 5 -1 0
20197 5 -3 0
20197 149 150 0
20197 149 147 0
20197 -65 -61 0
20197 -66 -62 0
20197 -67 -63 0
20197 118 -59 90 0
20197 240 241 0
1 -240 -241 0
20197 39 40 0
20197 184 171 0
20197 149 -116 -129 0
20197 -82 -74 0
20197 -83 -75 0
20197 -84 -76 0
20197 86 -111 0
1 -86 -110 0
1 -86 -112 0
1 -86 -113 0
20197 -9 6 0
20197 184 -157 0
20197 184 -159 0
20197 -228 -174 -260 0
20197 -61 -57 0
20197 -62 -58 0
20197 -63 -59 0
20197 155 -176 0
20197 243 241 0
20197 86 -94 0
1 -86 -93 0
1 -86 -95 0
1 -86 -96 0
20197 20 18 0
20197 89 46 0
20197 86 -103 0
20197 171 -167 0
20197 171 -169 0
20197 48 49 0
1 -48 -49 0
20197 88 -82 0
20197 88 -84 0
20197 155 -180 0
20197 153 151 0
20197 218 -219 0
20197 218 -221 0
20197 -227 237 0
20197 -229 237 0
20197 92 90 0
500 -92 -90 0
20197 -252 -256 0
20197 -253 -257 0
20197 -254 -258 0
20197 153 154 0
20197 153 150 0
20197 149 -116 -125 0
20197 155 152 0
1 -155 -152 0
20197 204 -199 0
20197 204 -201 0
20197 237 -265 -272 0
20197 -224 -182 -260 0
20197 91 90 0
500 -91 -90 0
20197 -180 -172 0
20197 -181 -173 0
20197 -182 -174 0
20197 -32 31 0
20197 -34 31 0
20197 243 239 0
20197 -231 -227 0
20197 -232 -228 0
20197 -233 -229 0
20197 87 -111 0
20197 17 18 0
20197 5 31 0
1 -5 -31 0
20197 171 -172 0
20197 171 -174 0
20197 240 239 0
20197 118 -71 90 0
20197 236 -265 -272 0
20197 19 18 0
2 -19 -18 0
20197 -232 -178 -260 0
20197 52 49 0
1 -52 -49 0
20197 16 -8 0
20197 16 -10 0
20197 46 44 0
20197 -167 -157 0
20197 -168 -158 0
20197 -169 -159 0
20197 86 -107 0
20197 39 38 0
2 -39 -38 0
20197 -143 147 0
1 -144 -147 0
20197 -145 147 0
1 -146 -147 0
20197 46 45 0
1 -46 -45 0
20197 87 -103 0
20197 -196 243 0
20197 -128 -132 0
1 -128 -134 0
1 -128 -135 0
20197 -129 -133 0
1 -130 -132 0
20197 -130 -134 0
1 -130 -135 0
1 -131 -132 0
1 -131 -134 0
1 -131 -135 0
20197 92 118 -59 0
20197 89 47 0
20197 -200 243 0
20197 -219 -209 0
20197 -220 -210 0
20197 -221 -211 0
20197 204 -195 0
20197 204 -197 0
20197 -227 236 0
20197 -229 236 0
20197 -252 -260 0
20197 -253 -261 0
20197 -254 -262 0
20197 -232 -264 -178 0
20197 -256 -244 0
20197 -257 -245 0
20197 -258 -246 0
20197 118 -63 91 0
20197 -228 -264 -174 0
20197 -69 -61 0
20197 -70 -62 0
20197 -71 -63 0
20197 185 184 0
20197 21 20 0
2 -21 -20 0
20197 -143 138 0
20197 -145 138 0
20197 203 -199 0
20197 203 -201 0
20197 171 243 0
1 -171 -243 0
20197 -232 -264 -182 0
20197 237 -213 0
20197 237 -215 0
20197 87 45 0
1 -87 -45 0
20197 119 -120 0
20197 119 -122 0
20197 241 239 0
20197 31 22 0
1 -31 -22 0
20197 73 -57 0
20197 73 -59 0
2 -73 -58 0
2 -73 -60 0
20197 171 161 0
20197 89 44 0
20197 7 -13 0
20197 -227 235 0
20197 -229 235 0
20197 -27 31 0
20197 -29 31 0
20197 237 236 0
500 -237 -236 0
20197 166 -167 0
20197 166 -169 0
20197 -224 -174 -260 0
20197 89 45 0
20197 87 -107 0
20197 185 -157 0
20197 185 -159 0
20197 186 -172 0
20197 186 -174 0
20197 237 235 0
500 -237 -235 0
20197 237 -272 -261 0
20197 237 -177 0
20197 -139 137 0
20197 -141 137 0
20197 -97 -102 0
20197 -98 -103 0
20197 -99 -104 0
20197 236 -173 0
20197 38 37 0
20197 -276 -272 0
20197 -277 -273 0
20197 -278 -274 0
20197 39 41 0
20197 73 118 0
20197 21 17 0
20197 166 -172 0
20197 166 -174 0
20197 86 88 0
20197 237 -181 0
20197 -195 -191 0
20197 -196 -192 0
20197 -197 -193 0
20197 86 -82 0
20197 86 -84 0
20197 -32 36 0
20197 -34 36 0
20197 186 185 0
20197 -23 22 0
20197 -25 22 0
20197 236 -213 0
20197 236 -215 0
20197 101 -106 0
20197 101 -108 0
20197 88 -78 0
20197 88 -80 0
20197 -115 89 -128 0
20197 -205 -191 0
20197 -206 -192 0
20197 -207 -193 0
20197 -74 -78 0
20197 -75 -79 0
20197 -76 -80 0
20197 152 154 0
1 -152 -154 0
20197 -223 237 0
20197 -225 237 0
20197 -252 -248 0
20197 -253 -249 0
20197 -254 -250 0
20197 156 154 0
20197 237 -205 0
20197 237 -207 0
20197 -205 -219 0
20197 -206 -220 0
20197 -207 -221 0
20197 52 50 0
20197 73 -82 0
20197 73 -84 0
20197 -27 22 0
20197 -29 22 0
20197 88 46 0
20197 5 -8 0
20197 5 -10 0
20197 -143 -139 0
1 -143 -141 0
1 -143 -142 0
20197 -144 -140 0
1 -145 -139 0
20197 -145 -141 0
1 -145 -142 0
1 -146 -139 0
1 -146 -141 0
1 -146 -142 0
20197 -213 -205 0
20197 -214 -206 0
20197 -215 -207 0
20197 238 243 0
20197 -200 239 0
20197 -82 -78 0
20197 -83 -79 0
20197 -84 -80 0
20197 -228 -182 -260 0
20197 240 238 0
3 -240 -238 0
20197 118 147 -129 0
20197 -69 -53 0
20197 -70 -54 0
20197 -71 -55 0
20197 171 -162 0
20197 171 -164 0
20197 166 161 0
500 -166 -161 0
20197 -83 -93 50 0
20197 -252 -244 0
20197 -253 -245 0
20197 -254 -246 0
20197 217 -219 0
20197 217 -221 0
20197 166 -176 0
20197 166 -178 0
20197 51 50 0
2 -51 -50 0
20197 -128 -124 0
20197 -129 -125 0
20197 -130 -126 0
20197 236 -181 0
20197 -188 243 0
20197 41 37 0
2 -41 -37 0
20197 -199 -209 0
20197 -200 -210 0
20197 -201 -211 0
20197 47 44 0
1 -47 -44 0
20197 52 -83 -106 0
20197 -74 -65 0
20197 -75 -66 0
20197 -76 -67 0
20197 155 154 0
1 -155 -154 0
20197 184 161 0
20197 184 -176 0
20197 184 -178 0
20197 -224 -178 -260 0
20197 17 16 0
2 -17 -16 0
20197 -176 -172 0
20197 -177 -173 0
20197 -178 -174 0
20197 -106 -102 0
20197 -107 -103 0
20197 -108 -104 0
20197 -205 -195 0
20197 -206 -196 0
20197 -207 -197 0
20197 -223 236 0
20197 -225 236 0
20197 -115 89 -124 0
20197 -268 237 -261 0
20197 136 -132 0
20197 136 -134 0
20197 88 43 0
20197 36 22 0
1 -36 -22 0
20197 118 147 -125 0
20197 -114 118 0
20197 -116 118 0
20197 49 -75 -93 0
20197 -231 -223 0
20197 -232 -224 0
20197 -233 -225 0
20197 184 -180 0
20197 184 -182 0
20197 -223 235 0
20197 -225 235 0
20197 -224 -264 -178 0
20197 153 171 0
3 -153 -171 0
20197 92 118 -71 0
20197 -264 -260 0
20197 -265 -261 0
20197 -266 -262 0
20197 86 -69 0
20197 86 -71 0
20197 38 40 0
20197 -172 -162 0
20197 -173 -163 0
20197 -174 -164 0
20197 184 166 0
20197 149 -116 -121 0
20197 -231 237 0
20197 -233 237 0
20197 185 -167 0
20197 185 -169 0
20197 -248 -260 0
20197 -249 -261 0
20197 -250 -262 0
20197 -224 -264 -182 0
20197 7 6 0
1 -7 -6 0
20197 204 -191 0
20197 204 -193 0
20197 49 -83 -93 0
20197 237 -209 0
20197 237 -211 0
20197 118 -67 91 0
20197 242 240 0
1 -242 -240 0
20197 52 -102 -79 0
20197 204 203 0
1000 -204 -203 0
20197 -276 237 -265 0
20197 52 -53 0
20197 52 -55 0
1 -52 -54 0
1 -52 -56 0
20197 -227 -223 0
20197 -228 -224 0
20197 -229 -225 0
20197 73 -69 0
20197 73 -71 0
20197 -213 -209 0
20197 -214 -210 0
20197 -215 -211 0
20197 -188 241 0
20197 166 -162 0
20197 166 -164 0
20197 -12 -8 0
20197 -13 -9 0
20197 -14 -10 0
20197 86 -78 0
20197 86 -80 0
20197 136 -128 0
20197 136 -130 0
20197 51 -93 -79 0
20197 242 243 0
1 -242 -243 0
20197 185 -172 0
20197 185 -174 0
20197 118 -59 91 0
20197 -69 -57 0
20197 -70 -58 0
20197 -71 -59 0
20197 -110 -106 0
20197 -111 -107 0
20197 -112 -108 0
20197 42 37 0
20197 156 -172 0
20197 73 -78 0
20197 73 -80 0
20197 184 -162 0
20197 184 -164 0
20197 149 -116 -133 0
20197 86 87 0
20197 -2 6 0
20197 203 -191 0
20197 203 -193 0
20197 -231 236 0
20197 -233 236 0
20197 -139 148 0
20197 -141 148 0
20197 -188 239 0
20197 41 40 0
20197 -231 235 0
20197 -233 235 0
20197 -23 36 0
20197 -25 36 0
20197 151 150 0
2 -151 -150 0
20197 217 -213 0
20197 217 -215 0
20197 101 -110 0
20197 101 -112 0
1 -101 -111 0
1 -101 -113 0
20197 88 -107 0
20197 51 49 0
20197 -32 -27 0
20197 -33 -28 0
20197 -34 -29 0
20197 87 -78 0
20197 87 -80 0
20197 185 161 0
500 -185 -161 0
20197 -172 -157 0
20197 -173 -158 0
20197 -174 -159 0
20197 -65 -53 0
20197 -66 -54 0
20197 -67 -55 0
20197 87 44 0
20197 86 -74 0
20197 86 -76 0
20197 92 91 0
500 -92 -91 0
20197 52 -106 -79 0
20197 161 -162 0
20197 161 -164 0
20197 -180 -176 0
20197 -181 -177 0
20197 -182 -178 0
20197 155 -172 0
20197 101 -93 0
20197 101 -95 0
1 -101 -94 0
1 -101 -96 0
20197 -195 -187 0
20197 -196 -188 0
20197 -197 -189 0
20197 -256 -260 0
20197 -257 -261 0
20197 -258 -262 0
20197 101 -102 0
20197 101 -104 0
20197 -199 -187 0
20197 -200 -188 0
20197 -201 -189 0
20197 87 46 0
1 -87 -46 0
20197 136 -124 0
20197 136 -126 0
20197 -75 -93 50 0
20197 86 43 0
20197 185 -180 0
20197 185 -182 0
20197 118 148 -125 0
20197 185 171 0
20197 -176 -162 0
20197 -177 -163 0
20197 -178 -164 0
20197 -264 -244 0
20197 -265 -245 0
20197 -266 -246 0
20197 -228 -178 -260 0
20197 49 50 0
20197 -32 22 0
20197 -34 22 0
20197 -213 -219 0
20197 -214 -220 0
20197 -215 -221 0
20197 118 -71 91 0
20197 5 22 0
20197 73 -74 0
20197 73 -76 0
20197 88 89 0
2 -88 -89 0
20197 -167 -162 0
20197 -168 -163 0
20197 -169 -164 0
20197 -268 237 -265 0
20197 48 47 0
1 -48 -47 0
20197 -2 7 0
20197 -248 -244 0
20197 -249 -245 0
20197 -250 -246 0
20197 -192 243 0
20197 148 147 0
20197 203 -195 0
20197 203 -197 0
20197 -276 237 -261 0
20197 -228 -264 -178 0
20197 46 43 0
20197 -27 -23 0
20197 -28 -24 0
20197 -29 -25 0
20197 46 47 0
20197 171 166 0
20197 -213 -199 0
20197 -214 -200 0
20197 -215 -201 0
20197 7 -9 0
20197 236 -272 -261 0
20197 -74 -61 0
20197 -75 -62 0
20197 -76 -63 0
20197 -196 241 0
20197 52 -83 -110 0
20197 -200 241 0
20197 -228 -264 -182 0
20197 242 239 0
20197 -124 -120 0
20197 -125 -121 0
20197 -126 -122 0
20197 73 -114 91 0
20197 -13 6 0
20197 119 -132 0
20197 119 -134 0
1 -119 -133 0
1 -119 -135 0
20197 171 241 0
20197 151 152 0
20197 217 -205 0
20197 217 -207 0
20197 204 -213 0
20197 204 -215 0
20197 -191 -187 0
20197 -192 -188 0
20197 -193 -189 0
20197 42 40 0
2 -42 -40 0
20197 -128 -120 0
20197 -129 -121 0
20197 -130 -122 0
20197 87 43 0
20197 52 -83 -93 0
20197 -139 147 0
1 -140 -147 0
20197 -141 147 0
1 -142 -147 0
20197 118 -63 90 0
20197 52 -83 -102 0
20197 218 -213 0
20197 218 -215 0
20197 138 137 0
2 -138 -137 0
20197 45 44 0
20197 -232 -264 -174 0
20197 16 -12 0
20197 16 -14 0
20197 -213 -195 0
20197 -214 -196 0
20197 -215 -197 0
2 -156 155 0
1 -4 0
1 -11 0
1 -15 0
1 -26 0
1 -30 0
1 -35 0
1 -43 0
1 -57 0
1 -59 0
1 -64 0
1 -68 0
1 -72 0
1 -77 0
1 -81 0
1 -85 0
1 -100 0
1 -105 0
1 -109 0
1 -117 0
1 -120 0
1 -122 0
1 -127 0
1 153 0
1000 -160 0
1000 -165 0
5 -170 0
1 -175 0
1 -179 0
1 -183 0
1 -190 0
1 -192 0
1 -194 0
1 -198 0
1 -202 0
1 -208 0
1 -212 0
1 -216 0
1 -222 0
1000 -226 0
1000 -230 0
1000 -234 0
1 -247 0
1 -251 0
1 -255 0
5 -259 0
1 -263 0
1 -267 0
1 -271 0
1 -273 0
1 -275 0
1 -279 0
